Welcome to the CBC MILP Solver 
Version: 2.10.12 
Build Date: Aug 20 2024 

command line - /opt/homebrew/bin/cbc computational_data/real_data/lp/wine_trial_006.lp seconds 10.0 solve solu computational_data/real_data/solutions/wine_trial_006.sol (default strategy 1)
seconds was changed from 1e+100 to 10
Continuous objective value is 6.66667 - 0.00 seconds
Cgl0003I 0 fixed, 0 tightened bounds, 61 strengthened rows, 0 substitutions
Cgl0003I 0 fixed, 0 tightened bounds, 65 strengthened rows, 0 substitutions
Cgl0003I 0 fixed, 0 tightened bounds, 59 strengthened rows, 0 substitutions
Cgl0003I 0 fixed, 0 tightened bounds, 37 strengthened rows, 0 substitutions
Cgl0003I 0 fixed, 0 tightened bounds, 18 strengthened rows, 0 substitutions
Cgl0003I 0 fixed, 0 tightened bounds, 10 strengthened rows, 0 substitutions
Cgl0003I 0 fixed, 0 tightened bounds, 8 strengthened rows, 0 substitutions
Cgl0003I 0 fixed, 0 tightened bounds, 5 strengthened rows, 0 substitutions
Cgl0003I 0 fixed, 0 tightened bounds, 4 strengthened rows, 0 substitutions
Cgl0004I processed model has 63 rows, 27 columns (27 integer (26 of which binary)) and 386 elements
Cutoff increment increased from 1e-05 to 0.9999
Cbc0038I Initial state - 14 integers unsatisfied sum - 3.66667
Cbc0038I Pass   1: suminf.    3.66667 (14) obj. 6.66667 iterations 5
Cbc0038I Pass   2: suminf.    0.00000 (0) obj. 8 iterations 18
Cbc0038I Solution found of 8
Cbc0038I Cleaned solution of 8
Cbc0038I Before mini branch and bound, 11 integers at bound fixed and 0 continuous
Cbc0038I Full problem 63 rows 27 columns, reduced to 49 rows 16 columns
Cbc0038I Mini branch and bound did not improve solution (0.01 seconds)
Cbc0038I Round again with cutoff of 6.96676
Cbc0038I Reduced cost fixing fixed 5 variables on major pass 2
Cbc0038I Pass   3: suminf.    3.66667 (14) obj. 6.66667 iterations 0
Cbc0038I Pass   4: suminf.    3.93351 (11) obj. 6.96676 iterations 9
Cbc0038I Pass   5: suminf.    3.51662 (12) obj. 6.96676 iterations 15
Cbc0038I Pass   6: suminf.    3.20665 (11) obj. 6.96676 iterations 4
Cbc0038I Pass   7: suminf.    3.06649 (11) obj. 6.96676 iterations 3
Cbc0038I Pass   8: suminf.    3.96676 (12) obj. 6.96676 iterations 9
Cbc0038I Pass   9: suminf.    3.66667 (14) obj. 6.66667 iterations 5
Cbc0038I Pass  10: suminf.    3.93351 (11) obj. 6.96676 iterations 7
Cbc0038I Pass  11: suminf.    3.51662 (12) obj. 6.96676 iterations 11
Cbc0038I Pass  12: suminf.    3.20665 (11) obj. 6.96676 iterations 3
Cbc0038I Pass  13: suminf.    3.06649 (11) obj. 6.96676 iterations 2
Cbc0038I Pass  14: suminf.    3.96676 (12) obj. 6.96676 iterations 8
Cbc0038I Pass  15: suminf.    3.66667 (14) obj. 6.66667 iterations 6
Cbc0038I Pass  16: suminf.    3.93351 (11) obj. 6.96676 iterations 8
Cbc0038I Pass  17: suminf.    3.51662 (12) obj. 6.96676 iterations 14
Cbc0038I Pass  18: suminf.    3.20665 (11) obj. 6.96676 iterations 4
Cbc0038I Pass  19: suminf.    3.06649 (11) obj. 6.96676 iterations 4
Cbc0038I Pass  20: suminf.    3.96676 (12) obj. 6.96676 iterations 10
Cbc0038I Pass  21: suminf.    3.66667 (14) obj. 6.66667 iterations 6
Cbc0038I Pass  22: suminf.    3.93351 (11) obj. 6.96676 iterations 7
Cbc0038I Pass  23: suminf.    3.51662 (12) obj. 6.96676 iterations 15
Cbc0038I Pass  24: suminf.    3.20665 (11) obj. 6.96676 iterations 4
Cbc0038I Pass  25: suminf.    3.06649 (11) obj. 6.96676 iterations 3
Cbc0038I Pass  26: suminf.    3.96676 (12) obj. 6.96676 iterations 8
Cbc0038I Pass  27: suminf.    3.66667 (14) obj. 6.66667 iterations 5
Cbc0038I Pass  28: suminf.    3.93351 (11) obj. 6.96676 iterations 7
Cbc0038I Pass  29: suminf.    3.51662 (12) obj. 6.96676 iterations 9
Cbc0038I Pass  30: suminf.    3.20665 (11) obj. 6.96676 iterations 3
Cbc0038I Pass  31: suminf.    3.06649 (11) obj. 6.96676 iterations 2
Cbc0038I Pass  32: suminf.    3.96676 (12) obj. 6.96676 iterations 7
Cbc0038I No solution found this major pass
Cbc0038I Before mini branch and bound, 10 integers at bound fixed and 0 continuous
Cbc0038I Full problem 63 rows 27 columns, reduced to 50 rows 17 columns
Cbc0038I Mini branch and bound did not improve solution (0.04 seconds)
Cbc0038I After 0.04 seconds - Feasibility pump exiting with objective of 8 - took 0.03 seconds
Cbc0012I Integer solution of 8 found by feasibility pump after 0 iterations and 0 nodes (0.04 seconds)
Cbc0038I Full problem 63 rows 27 columns, reduced to 41 rows 14 columns
Cbc0031I 3 added rows had average density of 12
Cbc0013I At root node, 16 cuts changed objective from 6.6666667 to 7.1666667 in 2 passes
Cbc0014I Cut generator 0 (Probing) - 0 row cuts average 0.0 elements, 0 column cuts (0 active)  in 0.000 seconds - new frequency is -100
Cbc0014I Cut generator 1 (Gomory) - 9 row cuts average 17.2 elements, 0 column cuts (0 active)  in 0.000 seconds - new frequency is 1
Cbc0014I Cut generator 2 (Knapsack) - 0 row cuts average 0.0 elements, 0 column cuts (0 active)  in 0.000 seconds - new frequency is -100
Cbc0014I Cut generator 3 (Clique) - 0 row cuts average 0.0 elements, 0 column cuts (0 active)  in 0.000 seconds - new frequency is -100
Cbc0014I Cut generator 4 (MixedIntegerRounding2) - 0 row cuts average 0.0 elements, 0 column cuts (0 active)  in 0.000 seconds - new frequency is -100
Cbc0014I Cut generator 5 (FlowCover) - 0 row cuts average 0.0 elements, 0 column cuts (0 active)  in 0.000 seconds - new frequency is -100
Cbc0014I Cut generator 6 (TwoMirCuts) - 11 row cuts average 17.5 elements, 0 column cuts (0 active)  in 0.000 seconds - new frequency is -100
Cbc0014I Cut generator 7 (ZeroHalf) - 2 row cuts average 3.5 elements, 0 column cuts (0 active)  in 0.002 seconds - new frequency is 1
Cbc0001I Search completed - best objective 8, took 8 iterations and 0 nodes (0.04 seconds)
Cbc0035I Maximum depth 0, 7 variables fixed on reduced cost
Cuts at root node changed objective from 6.66667 to 7.16667
Probing was tried 2 times and created 0 cuts of which 0 were active after adding rounds of cuts (0.000 seconds)
Gomory was tried 2 times and created 9 cuts of which 0 were active after adding rounds of cuts (0.000 seconds)
Knapsack was tried 2 times and created 0 cuts of which 0 were active after adding rounds of cuts (0.000 seconds)
Clique was tried 2 times and created 0 cuts of which 0 were active after adding rounds of cuts (0.000 seconds)
MixedIntegerRounding2 was tried 2 times and created 0 cuts of which 0 were active after adding rounds of cuts (0.000 seconds)
FlowCover was tried 2 times and created 0 cuts of which 0 were active after adding rounds of cuts (0.000 seconds)
TwoMirCuts was tried 2 times and created 11 cuts of which 0 were active after adding rounds of cuts (0.000 seconds)
ZeroHalf was tried 2 times and created 2 cuts of which 0 were active after adding rounds of cuts (0.002 seconds)

Result - Optimal solution found

Objective value:                8.00000000
Enumerated nodes:               0
Total iterations:               8
Time (CPU seconds):             0.04
Time (Wallclock seconds):       0.04

Total time (CPU seconds):       0.04   (Wallclock seconds):       0.05

